p tdp 110 109
51 91
90 1
61 36
17 52
85 12
46 10
82 90
32 103
4 95
43 9
37 97
72 64
28 30
104 5
65 53
110 26
106 22
81 69
20 59
15 46
33 77
97 67
29 55
100 58
8 89
88 94
89 50
18 49
12 56
83 63
77 13
55 24
21 86
73 11
28 109
11 58
90 47
96 22
34 23
44 12
36 14
54 35
74 106
83 92
7 90
32 91
43 46
2 48
19 69
75 6
82 16
75 3
12 60
107 62
86 66
108 86
42 85
25 14
31 38
48 67
40 76
25 24
25 20
28 93
33 39
80 96
85 83
40 62
101 18
18 70
33 91
79 38
98 28
99 97
97 54
28 69
45 100
34 68
13 34
73 64
8 84
14 78
105 5
104 21
60 110
75 46
87 84
75 94
66 93
102 33
16 48
74 27
41 36
66 31
52 34
68 84
57 97
95 29
107 100
27 53
65 101
58 28
59 33
5 48
106 46
85 53
71 61
48 77
85 13
